
  17    4
  10   10   10   10

   0   0   0   0   0   5 2 3 4 5 6 
  10  10  10  10  10   5 16 14 12 10 8 
   3  10  10  10  10   5 16 14 11 10 8 
   2  10  10  10  10   3 11 8 7 
   8  10  10  10  10   3 11 8 7 
   7  10  10  10  10   3 16 12 10 
   8  10  10  10  10   2 16 9 
   6  10  10  10  10   1 9 
   5  10  10  10  10   1 13 
   4  10  10  10  10   1 13 
   9  10  10  10  10   1 13 
   7  10  10  10  10   1 13 
   6  10  10  10  10   1 15 
   9  10  10  10  10   1 15 
   4  10  10  10  10   1 17
   2  10  10  10  10   1 17
   0   0   0   0   0   0 
